

*************************************************************

   NEOS Server Version 6.0
   Job#     : 15887857
   Password : xsmjCkWX
   User     : 
   Solver   : milp:HiGHS:AMPL
   Start    : 2025-04-15 11:06:26
   End      : 2025-04-15 11:06:31
   Host     : prod-sub-1.neos-server.org

   Disclaimer:

   This information is provided without any express or
   implied warranty. In particular, there is no warranty
   of any kind concerning the fitness of this
   information for any particular purpose.

   Announcements:
*************************************************************
You are using the solver highsampl.
Checking ampl.mod for highsampl_options...
Checking ampl.com for highsampl_options...
Executing AMPL.
processing data.
processing commands.
Executing on prod-exec-6.neos-server.org
C = 9

set N := 1 2 3 4 5 6 7;

:   P   W    :=
1   6   2
2   5   3
3   8   6
4   9   7
5   6   5
6   7   9
7   3   4
;

subject to C_capacity:
	2*X[1] + 3*X[2] + 6*X[3] + 7*X[4] + 5*X[5] + 9*X[6] + 4*X[7] <= 9;

maximize objective_function:
	6*X[1] + 5*X[2] + 8*X[3] + 9*X[4] + 6*X[5] + 7*X[6] + 3*X[7];


"option presolve 10;" used, but "option presolve 2;" would suffice.
7 variables, all binary
1 constraint, all linear; 7 nonzeros
	1 inequality constraint
1 linear objective; 7 nonzeros.

HiGHS 1.7.0:   tech:outlev = 1
Running HiGHS 1.7.0 (git hash: 50670fd): Copyright (c) 2024 HiGHS under MIT licence terms
Coefficient ranges:
  Matrix [2e+00, 9e+00]
  Cost   [3e+00, 9e+00]
  Bound  [1e+00, 1e+00]
  RHS    [9e+00, 9e+00]
Presolving model
1 rows, 7 cols, 7 nonzeros  0s
1 rows, 6 cols, 6 nonzeros  0s
Objective function is integral with scale 1

Solving MIP model with:
   1 rows
   6 cols (6 binary, 0 integer, 0 implied int., 0 continuous)
   6 nonzeros

        Nodes      |    B&B Tree     |            Objective Bounds              |  Dynamic Constraints |       Work      
     Proc. InQueue |  Leaves   Expl. | BestBound       BestSol              Gap |   Cuts   InLp Confl. | LpIters     Time

         0       0         0   0.00%   26              -inf                 inf        0      0      0         0     0.0s
 S       0       0         0   0.00%   26              11               136.36%        0      0      0         0     0.0s
 R       0       0         0   0.00%   16.33333333     12                36.11%        0      0      0         1     0.0s
 L       0       0         0   0.00%   15              15                 0.00%        2      1      2         2     0.0s

Solving report
  Status            Optimal
  Primal bound      15
  Dual bound        15
  Gap               0% (tolerance: 0.01%)
  Solution status   feasible
                    15 (objective)
                    0 (bound viol.)
                    0 (int. viol.)
                    0 (row viol.)
  Timing            0.00 (total)
                    0.00 (presolve)
                    0.00 (postsolve)
  Nodes             1
  LP iterations     2 (total)
                    0 (strong br.)
                    1 (separation)
                    0 (heuristics)
HiGHS 1.7.0: optimal solution; objective 15
2 simplex iterations
1 branching nodes
objective_function = 15

X [*] :=
1  1
2  0
3  0
4  1
5  0
6  0
7  0
;

NEOS Server Home

